# Hz S dB R 50
1000000	1.961308e-003	-1.309001e+000	-5.970188e+001	1.069375e+002	-5.831450e+001	8.184228e+001	1.632347e-002	-1.301236e+000
22247500	-3.593232e-003	-2.429650e+001	-3.097248e+001	6.551480e+001	-3.094931e+001	6.562332e+001	-7.817013e-003	-2.444939e+001
43495000	-1.931895e-002	-4.559087e+001	-2.620828e+001	4.423159e+001	-2.620234e+001	4.432626e+001	-2.911212e-002	-4.586796e+001
64742500	-5.142048e-002	-6.417450e+001	-2.428167e+001	2.558656e+001	-2.426976e+001	2.576226e+001	-5.766262e-002	-6.445063e+001
85990000	-7.272507e-002	-7.962894e+001	-2.357326e+001	1.010958e+001	-2.356153e+001	1.024785e+001	-7.945366e-002	-7.999664e+001
107237500	-8.179066e-002	-9.235493e+001	-2.351654e+001	-2.403916e+000	-2.348633e+001	-2.447900e+000	-7.927414e-002	-9.272533e+001
128485000	-9.885809e-002	-1.027462e+002	-2.381197e+001	-1.268021e+001	-2.382024e+001	-1.277147e+001	-1.118102e-001	-1.030296e+002
149732500	-1.080675e-001	-1.113963e+002	-2.431885e+001	-2.129855e+001	-2.430874e+001	-2.112569e+001	-1.103168e-001	-1.114562e+002
170980000	-1.319142e-001	-1.185135e+002	-2.495867e+001	-2.820559e+001	-2.495675e+001	-2.817588e+001	-1.326114e-001	-1.185879e+002
192227500	-1.353211e-001	-1.244320e+002	-2.566226e+001	-3.390832e+001	-2.563456e+001	-3.382877e+001	-1.269402e-001	-1.244493e+002
213475000	-1.380632e-001	-1.294576e+002	-2.636058e+001	-3.881874e+001	-2.637739e+001	-3.873746e+001	-1.471530e-001	-1.294102e+002
234722500	-1.490061e-001	-1.337773e+002	-2.715562e+001	-4.283159e+001	-2.712564e+001	-4.286295e+001	-1.417262e-001	-1.336571e+002
255970000	-1.533515e-001	-1.375665e+002	-2.790055e+001	-4.643401e+001	-2.790827e+001	-4.642403e+001	-1.505358e-001	-1.373581e+002
277217500	-1.670789e-001	-1.408274e+002	-2.871653e+001	-4.965556e+001	-2.872310e+001	-4.954150e+001	-1.635247e-001	-1.405290e+002
298465000	-1.623326e-001	-1.436425e+002	-2.952967e+001	-5.219982e+001	-2.952088e+001	-5.217913e+001	-1.642936e-001	-1.434541e+002
319712500	-1.731253e-001	-1.461597e+002	-3.034734e+001	-5.440563e+001	-3.034508e+001	-5.437243e+001	-1.684751e-001	-1.458984e+002
340960000	-1.633749e-001	-1.484422e+002	-3.114563e+001	-5.628374e+001	-3.118416e+001	-5.653954e+001	-1.643102e-001	-1.481294e+002
362207500	-1.813380e-001	-1.504689e+002	-3.205503e+001	-5.803758e+001	-3.205310e+001	-5.827816e+001	-1.773687e-001	-1.501117e+002
383455000	-1.865716e-001	-1.523971e+002	-3.296620e+001	-5.964664e+001	-3.295870e+001	-5.977683e+001	-1.844612e-001	-1.519809e+002
404702500	-1.832053e-001	-1.540710e+002	-3.390213e+001	-6.105797e+001	-3.388948e+001	-6.107300e+001	-1.784626e-001	-1.536288e+002
425950000	-1.853572e-001	-1.555973e+002	-3.488671e+001	-6.195731e+001	-3.488186e+001	-6.183060e+001	-1.843145e-001	-1.549995e+002
447197500	-1.860455e-001	-1.569173e+002	-3.596891e+001	-6.294819e+001	-3.595404e+001	-6.269769e+001	-1.800130e-001	-1.564521e+002
468445000	-1.944609e-001	-1.583122e+002	-3.709438e+001	-6.358226e+001	-3.707119e+001	-6.369430e+001	-1.938034e-001	-1.577764e+002
489692500	-2.007229e-001	-1.595383e+002	-3.824750e+001	-6.382768e+001	-3.828009e+001	-6.393023e+001	-1.970757e-001	-1.589440e+002
510940000	-2.089052e-001	-1.606907e+002	-3.971806e+001	-6.430747e+001	-3.969732e+001	-6.443389e+001	-1.979051e-001	-1.600712e+002
532187500	-2.089536e-001	-1.616772e+002	-4.122970e+001	-6.367463e+001	-4.125001e+001	-6.348263e+001	-2.015309e-001	-1.610914e+002
553435000	-1.982154e-001	-1.626352e+002	-4.303007e+001	-6.249669e+001	-4.297442e+001	-6.299210e+001	-1.987042e-001	-1.619917e+002
574682500	-2.090372e-001	-1.636445e+002	-4.503575e+001	-6.081685e+001	-4.508909e+001	-6.083102e+001	-2.123489e-001	-1.629724e+002
595930000	-2.121945e-001	-1.645181e+002	-4.761204e+001	-5.695519e+001	-4.760371e+001	-5.722201e+001	-2.062880e-001	-1.638664e+002
617177500	-2.122262e-001	-1.652983e+002	-5.087212e+001	-5.049396e+001	-5.084623e+001	-4.959179e+001	-2.113366e-001	-1.646786e+002
638425000	-2.252059e-001	-1.661078e+002	-5.516105e+001	-3.181080e+001	-5.555785e+001	-2.841552e+001	-2.147631e-001	-1.653752e+002
659672500	-2.218327e-001	-1.668122e+002	-5.826743e+001	1.719331e+001	-5.748749e+001	1.924884e+001	-2.048889e-001	-1.661257e+002
680920000	-2.173905e-001	-1.676619e+002	-5.454277e+001	6.047372e+001	-5.407506e+001	6.077589e+001	-2.211559e-001	-1.668221e+002
702167500	-2.282999e-001	-1.683410e+002	-5.064830e+001	7.586437e+001	-5.055226e+001	7.558481e+001	-2.228088e-001	-1.675269e+002
723415000	-2.385587e-001	-1.690224e+002	-4.782891e+001	8.304080e+001	-4.802800e+001	8.369932e+001	-2.287634e-001	-1.682489e+002
744662500	-2.291055e-001	-1.696079e+002	-4.572946e+001	8.587714e+001	-4.568156e+001	8.635120e+001	-2.283814e-001	-1.688735e+002
765910000	-2.341501e-001	-1.702271e+002	-4.402100e+001	8.827968e+001	-4.404983e+001	8.768550e+001	-2.260118e-001	-1.694320e+002
787157500	-2.369531e-001	-1.709122e+002	-4.275773e+001	8.930670e+001	-4.262044e+001	8.978201e+001	-2.387789e-001	-1.701368e+002
808405000	-2.492656e-001	-1.715965e+002	-4.145536e+001	9.025614e+001	-4.159294e+001	8.988045e+001	-2.491348e-001	-1.707535e+002
829652500	-2.461746e-001	-1.721631e+002	-4.049093e+001	9.041886e+001	-4.055703e+001	8.988247e+001	-2.428727e-001	-1.713888e+002
850900000	-2.493466e-001	-1.727122e+002	-3.972380e+001	9.041760e+001	-3.974299e+001	9.096724e+001	-2.415902e-001	-1.718722e+002
872147500	-2.499078e-001	-1.732258e+002	-3.895224e+001	9.052863e+001	-3.888590e+001	9.126696e+001	-2.520969e-001	-1.723977e+002
893395000	-2.578148e-001	-1.737999e+002	-3.830513e+001	9.038767e+001	-3.824489e+001	9.104493e+001	-2.578605e-001	-1.730407e+002
914642500	-2.625249e-001	-1.745353e+002	-3.772987e+001	9.031873e+001	-3.771718e+001	9.021452e+001	-2.583247e-001	-1.736561e+002
935890000	-2.590956e-001	-1.751487e+002	-3.721874e+001	9.028924e+001	-3.718114e+001	9.019434e+001	-2.653217e-001	-1.741472e+002
957137500	-2.482342e-001	-1.755776e+002	-3.672945e+001	8.992530e+001	-3.670938e+001	9.039553e+001	-2.667097e-001	-1.746601e+002
978385000	-2.530992e-001	-1.760359e+002	-3.629502e+001	8.990957e+001	-3.632862e+001	8.992949e+001	-2.730928e-001	-1.751879e+002
999632500	-2.691545e-001	-1.766355e+002	-3.596218e+001	8.985864e+001	-3.595553e+001	8.998134e+001	-2.658978e-001	-1.758043e+002
1020880000	-2.731239e-001	-1.772878e+002	-3.563749e+001	8.927363e+001	-3.567061e+001	8.948971e+001	-2.747874e-001	-1.763657e+002
1042127500	-2.769524e-001	-1.778767e+002	-3.537088e+001	8.909596e+001	-3.539275e+001	8.912841e+001	-2.823447e-001	-1.769469e+002
1063375000	-2.867216e-001	-1.784401e+002	-3.513805e+001	8.885854e+001	-3.512262e+001	8.932389e+001	-2.770815e-001	-1.775246e+002
1084622500	-2.815093e-001	-1.789045e+002	-3.490632e+001	8.864728e+001	-3.497579e+001	8.869078e+001	-2.870927e-001	-1.781440e+002
1105870000	-2.883599e-001	-1.794634e+002	-3.481784e+001	8.833983e+001	-3.480584e+001	8.852169e+001	-3.019815e-001	-1.787749e+002
1127117500	-2.927100e-001	1.798616e+002	-3.470148e+001	8.833575e+001	-3.477886e+001	8.781279e+001	-3.001426e-001	-1.794219e+002
1148365000	-3.018034e-001	1.790693e+002	-3.466950e+001	8.770885e+001	-3.467698e+001	8.789377e+001	-3.015858e-001	1.798729e+002
1169612500	-2.905958e-001	1.785097e+002	-3.468463e+001	8.747008e+001	-3.472148e+001	8.763681e+001	-3.031835e-001	1.793016e+002
1190860000	-2.995961e-001	1.780231e+002	-3.481289e+001	8.748406e+001	-3.483761e+001	8.728570e+001	-3.342833e-001	1.785574e+002
1212107500	-3.167635e-001	1.773293e+002	-3.500170e+001	8.724238e+001	-3.506708e+001	8.714199e+001	-3.261366e-001	1.778168e+002
1233355000	-3.225399e-001	1.765920e+002	-3.531245e+001	8.703574e+001	-3.530640e+001	8.681930e+001	-3.256300e-001	1.770603e+002
1254602500	-3.335179e-001	1.757852e+002	-3.575513e+001	8.713184e+001	-3.573946e+001	8.698696e+001	-3.447641e-001	1.762372e+002
1275850000	-3.300777e-001	1.749290e+002	-3.636699e+001	8.754220e+001	-3.637295e+001	8.756951e+001	-3.451625e-001	1.754887e+002
1297097500	-3.427366e-001	1.742117e+002	-3.721129e+001	8.794714e+001	-3.724169e+001	8.840411e+001	-3.653388e-001	1.746028e+002
1318345000	-3.627305e-001	1.734117e+002	-3.840592e+001	9.005909e+001	-3.840413e+001	8.998505e+001	-3.664762e-001	1.736408e+002
1339592500	-3.728862e-001	1.724659e+002	-4.008905e+001	9.320406e+001	-4.015257e+001	9.353403e+001	-3.787394e-001	1.726974e+002
1360840000	-3.778975e-001	1.713840e+002	-4.271903e+001	1.005126e+002	-4.266279e+001	1.012238e+002	-3.986376e-001	1.716103e+002
1382087500	-3.890144e-001	1.703216e+002	-4.656661e+001	1.219500e+002	-4.659001e+001	1.229094e+002	-4.119410e-001	1.704290e+002
1403335000	-3.993100e-001	1.692078e+002	-4.794958e+001	1.789664e+002	-4.799680e+001	-1.797761e+002	-4.403333e-001	1.691884e+002
1424582500	-4.208443e-001	1.680661e+002	-4.237745e+001	-1.430953e+002	-4.235777e+001	-1.432698e+002	-4.420678e-001	1.678654e+002
1445830000	-4.501907e-001	1.667326e+002	-3.736307e+001	-1.313144e+002	-3.739395e+001	-1.314546e+002	-4.720691e-001	1.663755e+002
1467077500	-4.836272e-001	1.652842e+002	-3.356008e+001	-1.271813e+002	-3.353263e+001	-1.269722e+002	-5.066939e-001	1.647728e+002
1488325000	-4.944401e-001	1.635558e+002	-3.032466e+001	-1.256629e+002	-3.038324e+001	-1.256312e+002	-5.416753e-001	1.629531e+002
1509572500	-5.480585e-001	1.617600e+002	-2.753978e+001	-1.259853e+002	-2.755353e+001	-1.257568e+002	-5.922566e-001	1.609004e+002
1530820000	-5.979321e-001	1.598560e+002	-2.498860e+001	-1.269042e+002	-2.501513e+001	-1.269256e+002	-6.414574e-001	1.585621e+002
1552067500	-6.591564e-001	1.577049e+002	-2.260390e+001	-1.287864e+002	-2.260018e+001	-1.287350e+002	-7.148683e-001	1.560044e+002
1573315000	-7.472455e-001	1.549616e+002	-2.032683e+001	-1.314231e+002	-2.032282e+001	-1.312956e+002	-8.177400e-001	1.529852e+002
1594562500	-8.582619e-001	1.518647e+002	-1.812071e+001	-1.348121e+002	-1.812280e+001	-1.347306e+002	-9.578255e-001	1.494179e+002
1615810000	-1.013446e+000	1.484111e+002	-1.597597e+001	-1.388913e+002	-1.598561e+001	-1.387892e+002	-1.142737e+000	1.452658e+002
1637057500	-1.242928e+000	1.443614e+002	-1.385405e+001	-1.440623e+002	-1.388269e+001	-1.438392e+002	-1.406274e+000	1.403372e+002
1658305000	-1.594133e+000	1.396541e+002	-1.177420e+001	-1.501902e+002	-1.177208e+001	-1.500290e+002	-1.788205e+000	1.343822e+002
1679552500	-2.092768e+000	1.340486e+002	-9.728194e+000	-1.579143e+002	-9.730676e+000	-1.576297e+002	-2.385458e+000	1.273380e+002
1700800000	-2.874197e+000	1.276809e+002	-7.809078e+000	-1.672064e+002	-7.793826e+000	-1.669932e+002	-3.295850e+000	1.188423e+002
1722047500	-4.060939e+000	1.210404e+002	-6.057787e+000	-1.781759e+002	-6.051613e+000	-1.780184e+002	-4.733486e+000	1.090636e+002
1743295000	-5.817862e+000	1.153279e+002	-4.605196e+000	1.692755e+002	-4.580934e+000	1.694271e+002	-6.997251e+000	9.850596e+001
1764542500	-8.259516e+000	1.132340e+002	-3.478933e+000	1.559279e+002	-3.460454e+000	1.560870e+002	-1.064648e+001	8.865369e+001
1785790000	-1.112424e+001	1.187147e+002	-2.751876e+000	1.426000e+002	-2.725149e+000	1.426887e+002	-1.685414e+001	8.503612e+001
1807037500	-1.324522e+001	1.347428e+002	-2.331029e+000	1.301441e+002	-2.301642e+000	1.301912e+002	-2.794236e+001	1.432406e+002
1828285000	-1.334948e+001	1.519875e+002	-2.116085e+000	1.189170e+002	-2.095516e+000	1.189076e+002	-1.930372e+001	-1.534504e+002
1849532500	-1.255122e+001	1.605675e+002	-2.020072e+000	1.088696e+002	-1.996076e+000	1.088853e+002	-1.495622e+001	-1.529209e+002
1870780000	-1.197699e+001	1.634714e+002	-1.964081e+000	9.988617e+001	-1.937083e+000	9.988584e+001	-1.301340e+001	-1.569941e+002
1892027500	-1.187670e+001	1.625212e+002	-1.907306e+000	9.161211e+001	-1.886017e+000	9.161505e+001	-1.224577e+001	-1.608954e+002
1913275000	-1.238394e+001	1.603663e+002	-1.836172e+000	8.378378e+001	-1.821115e+000	8.373549e+001	-1.229770e+001	-1.641673e+002
1934522500	-1.359087e+001	1.569205e+002	-1.766119e+000	7.609963e+001	-1.749888e+000	7.604875e+001	-1.286705e+001	-1.647294e+002
1955770000	-1.561627e+001	1.543630e+002	-1.700162e+000	6.847613e+001	-1.687246e+000	6.841961e+001	-1.394135e+001	-1.621551e+002
1977017500	-1.951817e+001	1.554270e+002	-1.655932e+000	6.081399e+001	-1.640228e+000	6.076879e+001	-1.535903e+001	-1.542357e+002
1998265000	-2.713988e+001	-1.761388e+002	-1.644611e+000	5.298735e+001	-1.622494e+000	5.291922e+001	-1.630967e+001	-1.367326e+002
2019512500	-2.297800e+001	-8.735730e+001	-1.694182e+000	4.501820e+001	-1.684680e+000	4.497583e+001	-1.526591e+001	-1.143450e+002
2040760000	-1.603642e+001	-7.578909e+001	-1.837692e+000	3.693332e+001	-1.826920e+000	3.688536e+001	-1.286387e+001	-1.005736e+002
2062007500	-1.201005e+001	-7.796924e+001	-2.073578e+000	2.897984e+001	-2.055275e+000	2.894625e+001	-1.044128e+001	-9.586022e+001
2083255000	-9.277038e+000	-8.306402e+001	-2.404867e+000	2.124270e+001	-2.393221e+000	2.110955e+001	-8.353053e+000	-9.528212e+001
2104502500	-7.252119e+000	-8.881857e+001	-2.836084e+000	1.379242e+001	-2.820970e+000	1.378452e+001	-6.682584e+000	-9.751745e+001
2125750000	-5.754717e+000	-9.417388e+001	-3.358447e+000	6.872797e+000	-3.326368e+000	6.831635e+000	-5.393579e+000	-1.008731e+002
2146997500	-4.641664e+000	-9.938456e+001	-3.922051e+000	6.000349e-001	-3.900936e+000	4.643859e-001	-4.377683e+000	-1.046512e+002
2168245000	-3.812605e+000	-1.042358e+002	-4.528737e+000	-5.110882e+000	-4.513061e+000	-5.187730e+000	-3.601138e+000	-1.083739e+002
2189492500	-3.164447e+000	-1.091014e+002	-5.154513e+000	-1.046139e+001	-5.148175e+000	-1.049433e+001	-2.988100e+000	-1.120242e+002
2210740000	-2.633704e+000	-1.134058e+002	-5.817335e+000	-1.511680e+001	-5.809765e+000	-1.522442e+001	-2.509145e+000	-1.153988e+002
2231987500	-2.207577e+000	-1.169807e+002	-6.473256e+000	-1.921448e+001	-6.467346e+000	-1.930401e+001	-2.123122e+000	-1.186015e+002
2253235000	-1.888027e+000	-1.200159e+002	-7.133332e+000	-2.280957e+001	-7.120280e+000	-2.286169e+001	-1.813470e+000	-1.214627e+002
2274482500	-1.650124e+000	-1.229812e+002	-7.751059e+000	-2.611715e+001	-7.750061e+000	-2.616003e+001	-1.571677e+000	-1.240273e+002
2295730000	-1.442848e+000	-1.258179e+002	-8.360594e+000	-2.913895e+001	-8.367401e+000	-2.924125e+001	-1.375691e+000	-1.263585e+002
2316977500	-1.256856e+000	-1.283816e+002	-8.988672e+000	-3.187733e+001	-8.972503e+000	-3.200267e+001	-1.216165e+000	-1.284940e+002
2338225000	-1.100160e+000	-1.304552e+002	-9.582224e+000	-3.428996e+001	-9.573374e+000	-3.435178e+001	-1.080004e+000	-1.305050e+002
2359472500	-9.828825e-001	-1.320832e+002	-1.014473e+001	-3.616807e+001	-1.013989e+001	-3.632023e+001	-9.650444e-001	-1.321428e+002
2380720000	-8.982778e-001	-1.338421e+002	-1.067851e+001	-3.823472e+001	-1.067171e+001	-3.815629e+001	-8.681212e-001	-1.337523e+002
2401967500	-8.310624e-001	-1.355680e+002	-1.119531e+001	-4.010010e+001	-1.118385e+001	-4.010056e+001	-7.929472e-001	-1.352207e+002
2423215000	-7.445244e-001	-1.372143e+002	-1.170725e+001	-4.183692e+001	-1.171205e+001	-4.182621e+001	-7.293669e-001	-1.366084e+002
2444462500	-6.669978e-001	-1.385276e+002	-1.221698e+001	-4.327782e+001	-1.220407e+001	-4.329099e+001	-6.508783e-001	-1.378159e+002
2465710000	-6.216914e-001	-1.395437e+002	-1.269858e+001	-4.445987e+001	-1.268985e+001	-4.454430e+001	-6.038880e-001	-1.389415e+002
2486957500	-5.820141e-001	-1.405722e+002	-1.313558e+001	-4.560277e+001	-1.313805e+001	-4.575224e+001	-5.615370e-001	-1.399577e+002
2508205000	-5.455279e-001	-1.416804e+002	-1.356619e+001	-4.689055e+001	-1.358225e+001	-4.687541e+001	-5.261767e-001	-1.408607e+002
2529452500	-5.121815e-001	-1.428046e+002	-1.403196e+001	-4.804731e+001	-1.402108e+001	-4.802540e+001	-4.962892e-001	-1.417773e+002
2550700000	-4.676160e-001	-1.436566e+002	-1.447936e+001	-4.899840e+001	-1.444746e+001	-4.902397e+001	-4.584774e-001	-1.426083e+002
2571947500	-4.455904e-001	-1.443538e+002	-1.486703e+001	-4.984972e+001	-1.486270e+001	-4.984122e+001	-4.336548e-001	-1.433852e+002
2593195000	-4.203143e-001	-1.450367e+002	-1.525062e+001	-5.069885e+001	-1.525756e+001	-5.078553e+001	-4.031544e-001	-1.441648e+002
2614442500	-4.167110e-001	-1.457572e+002	-1.563774e+001	-5.155754e+001	-1.561110e+001	-5.156831e+001	-3.787435e-001	-1.447911e+002
2635690000	-3.824808e-001	-1.465978e+002	-1.600894e+001	-5.239134e+001	-1.599244e+001	-5.229903e+001	-3.610946e-001	-1.454072e+002
2656937500	-3.615995e-001	-1.472924e+002	-1.639576e+001	-5.311711e+001	-1.637102e+001	-5.308738e+001	-3.415582e-001	-1.460198e+002
2678185000	-3.391390e-001	-1.478042e+002	-1.675376e+001	-5.369039e+001	-1.676166e+001	-5.368764e+001	-3.347370e-001	-1.465590e+002
2699432500	-3.322279e-001	-1.482763e+002	-1.710472e+001	-5.424538e+001	-1.710682e+001	-5.425409e+001	-3.236688e-001	-1.470746e+002
2720680000	-3.245055e-001	-1.487189e+002	-1.742928e+001	-5.477812e+001	-1.741463e+001	-5.478392e+001	-2.946910e-001	-1.475423e+002
2741927500	-3.057335e-001	-1.492237e+002	-1.778232e+001	-5.532077e+001	-1.774218e+001	-5.551850e+001	-2.873254e-001	-1.480590e+002
2763175000	-2.963390e-001	-1.499092e+002	-1.811653e+001	-5.616024e+001	-1.809819e+001	-5.605287e+001	-2.834425e-001	-1.484769e+002
2784422500	-2.834780e-001	-1.503107e+002	-1.844666e+001	-5.646354e+001	-1.841234e+001	-5.646719e+001	-2.682925e-001	-1.489474e+002
2805670000	-2.781049e-001	-1.505498e+002	-1.875950e+001	-5.676029e+001	-1.873381e+001	-5.688182e+001	-2.593324e-001	-1.493113e+002
2826917500	-2.693399e-001	-1.509398e+002	-1.904475e+001	-5.742143e+001	-1.902968e+001	-5.729772e+001	-2.513050e-001	-1.496485e+002
2848165000	-2.647330e-001	-1.513507e+002	-1.935350e+001	-5.792288e+001	-1.933926e+001	-5.771350e+001	-2.470193e-001	-1.500039e+002
2869412500	-2.635104e-001	-1.517196e+002	-1.968091e+001	-5.826873e+001	-1.964419e+001	-5.830233e+001	-2.471862e-001	-1.503684e+002
2890660000	-2.545621e-001	-1.522340e+002	-1.996911e+001	-5.871488e+001	-1.994421e+001	-5.865232e+001	-2.367908e-001	-1.507547e+002
2911907500	-2.451378e-001	-1.524854e+002	-2.026691e+001	-5.902978e+001	-2.023676e+001	-5.912810e+001	-2.320154e-001	-1.510946e+002
2933155000	-2.449686e-001	-1.527122e+002	-2.055378e+001	-5.941386e+001	-2.050943e+001	-5.926147e+001	-2.131699e-001	-1.513394e+002
2954402500	-2.236849e-001	-1.529124e+002	-2.081481e+001	-5.968899e+001	-2.080057e+001	-5.966011e+001	-2.192404e-001	-1.515893e+002
2975650000	-2.254099e-001	-1.531476e+002	-2.110140e+001	-5.999356e+001	-2.107006e+001	-5.996268e+001	-2.122977e-001	-1.518711e+002
2996897500	-2.290978e-001	-1.536540e+002	-2.137721e+001	-6.050116e+001	-2.135557e+001	-6.038230e+001	-2.177123e-001	-1.522345e+002
3018145000	-2.236922e-001	-1.539071e+002	-2.166563e+001	-6.071475e+001	-2.162362e+001	-6.083900e+001	-2.062416e-001	-1.525231e+002
3039392500	-2.106264e-001	-1.540546e+002	-2.192304e+001	-6.093902e+001	-2.190494e+001	-6.104371e+001	-2.038838e-001	-1.526770e+002
3060640000	-2.057355e-001	-1.541862e+002	-2.220117e+001	-6.136118e+001	-2.215636e+001	-6.138752e+001	-1.989746e-001	-1.529298e+002
3081887500	-2.105046e-001	-1.544272e+002	-2.246346e+001	-6.168197e+001	-2.242279e+001	-6.176786e+001	-2.044351e-001	-1.531652e+002
3103135000	-2.106290e-001	-1.548961e+002	-2.272223e+001	-6.217575e+001	-2.270171e+001	-6.220521e+001	-1.992642e-001	-1.533569e+002
3124382500	-2.018801e-001	-1.552300e+002	-2.299070e+001	-6.246026e+001	-2.294925e+001	-6.256874e+001	-1.863352e-001	-1.535835e+002
3145630000	-2.070816e-001	-1.553194e+002	-2.327858e+001	-6.277569e+001	-2.323921e+001	-6.281091e+001	-1.952267e-001	-1.537262e+002
3166877500	-1.879572e-001	-1.552643e+002	-2.353755e+001	-6.302048e+001	-2.349076e+001	-6.288884e+001	-1.873652e-001	-1.538734e+002
3188125000	-1.990982e-001	-1.554139e+002	-2.380804e+001	-6.329373e+001	-2.376012e+001	-6.319324e+001	-1.824476e-001	-1.541048e+002
3209372500	-2.045647e-001	-1.558221e+002	-2.406459e+001	-6.367624e+001	-2.404398e+001	-6.351426e+001	-1.836995e-001	-1.543077e+002
3230620000	-1.979576e-001	-1.561921e+002	-2.432391e+001	-6.390911e+001	-2.430549e+001	-6.393233e+001	-1.812336e-001	-1.544841e+002
3251867500	-1.907991e-001	-1.563181e+002	-2.461321e+001	-6.419297e+001	-2.458768e+001	-6.401968e+001	-1.812553e-001	-1.545770e+002
3273115000	-1.913560e-001	-1.563337e+002	-2.488041e+001	-6.459526e+001	-2.486202e+001	-6.432184e+001	-1.802739e-001	-1.547561e+002
3294362500	-1.905736e-001	-1.564143e+002	-2.514848e+001	-6.472209e+001	-2.511091e+001	-6.471547e+001	-1.841355e-001	-1.549632e+002
3315610000	-2.018714e-001	-1.567305e+002	-2.540561e+001	-6.497165e+001	-2.537928e+001	-6.501455e+001	-1.757197e-001	-1.550870e+002
3336857500	-1.987544e-001	-1.571327e+002	-2.567605e+001	-6.522465e+001	-2.568223e+001	-6.527070e+001	-1.867806e-001	-1.552794e+002
3358105000	-1.952513e-001	-1.572867e+002	-2.597764e+001	-6.542091e+001	-2.592904e+001	-6.535764e+001	-1.844460e-001	-1.553554e+002
3379352500	-1.765017e-001	-1.572363e+002	-2.622164e+001	-6.584619e+001	-2.620835e+001	-6.554440e+001	-1.766389e-001	-1.555403e+002
3400600000	-1.921858e-001	-1.571229e+002	-2.653096e+001	-6.593894e+001	-2.646229e+001	-6.580879e+001	-1.733478e-001	-1.557161e+002
3421847500	-2.030053e-001	-1.573397e+002	-2.679945e+001	-6.620645e+001	-2.671890e+001	-6.617392e+001	-1.679435e-001	-1.559237e+002
3443095000	-2.025706e-001	-1.577019e+002	-2.701762e+001	-6.666603e+001	-2.700625e+001	-6.641927e+001	-1.746067e-001	-1.559308e+002
3464342500	-2.042468e-001	-1.580274e+002	-2.734668e+001	-6.693110e+001	-2.732273e+001	-6.665525e+001	-1.831337e-001	-1.560400e+002
3485590000	-1.954460e-001	-1.580583e+002	-2.765200e+001	-6.704869e+001	-2.762630e+001	-6.696915e+001	-1.904977e-001	-1.562454e+002
3506837500	-1.927876e-001	-1.579913e+002	-2.794774e+001	-6.717878e+001	-2.789092e+001	-6.711461e+001	-1.846985e-001	-1.563970e+002
3528085000	-2.169644e-001	-1.581912e+002	-2.822115e+001	-6.756236e+001	-2.818026e+001	-6.715984e+001	-1.807848e-001	-1.565391e+002
3549332500	-2.223730e-001	-1.584727e+002	-2.848428e+001	-6.775608e+001	-2.848694e+001	-6.758858e+001	-1.834538e-001	-1.565519e+002
3570580000	-2.128293e-001	-1.587841e+002	-2.880808e+001	-6.790836e+001	-2.876538e+001	-6.770028e+001	-1.896631e-001	-1.566763e+002
3591827500	-1.910773e-001	-1.588362e+002	-2.910329e+001	-6.794985e+001	-2.909914e+001	-6.802666e+001	-1.967643e-001	-1.568734e+002
3613075000	-1.961614e-001	-1.588081e+002	-2.941101e+001	-6.841253e+001	-2.938653e+001	-6.805062e+001	-1.889191e-001	-1.570722e+002
3634322500	-2.209832e-001	-1.587490e+002	-2.976180e+001	-6.844738e+001	-2.975293e+001	-6.806693e+001	-1.923332e-001	-1.571371e+002
3655570000	-2.210865e-001	-1.589437e+002	-3.003026e+001	-6.832158e+001	-3.000123e+001	-6.858728e+001	-1.921923e-001	-1.572068e+002
3676817500	-2.212963e-001	-1.593906e+002	-3.032275e+001	-6.891850e+001	-3.029142e+001	-6.847150e+001	-1.986156e-001	-1.572757e+002
3698065000	-2.137834e-001	-1.595987e+002	-3.064517e+001	-6.906128e+001	-3.065707e+001	-6.881102e+001	-2.066886e-001	-1.573653e+002
3719312500	-2.147775e-001	-1.596497e+002	-3.096653e+001	-6.971245e+001	-3.091576e+001	-6.938556e+001	-2.053352e-001	-1.577091e+002
3740560000	-2.217484e-001	-1.595357e+002	-3.127439e+001	-6.967722e+001	-3.123019e+001	-6.963089e+001	-2.057457e-001	-1.577966e+002
3761807500	-2.357635e-001	-1.596631e+002	-3.160472e+001	-7.018060e+001	-3.158805e+001	-6.986190e+001	-2.087603e-001	-1.578282e+002
3783055000	-2.469054e-001	-1.600772e+002	-3.193210e+001	-7.078463e+001	-3.192069e+001	-7.066064e+001	-2.085151e-001	-1.579035e+002
3804302500	-2.327007e-001	-1.603718e+002	-3.229257e+001	-7.111786e+001	-3.231176e+001	-7.092801e+001	-2.227756e-001	-1.580241e+002
3825550000	-2.431778e-001	-1.604592e+002	-3.263546e+001	-7.172637e+001	-3.260841e+001	-7.138511e+001	-2.225047e-001	-1.582775e+002
3846797500	-2.427103e-001	-1.603887e+002	-3.301903e+001	-7.202401e+001	-3.305603e+001	-7.173957e+001	-2.146038e-001	-1.584120e+002
3868045000	-2.580711e-001	-1.603720e+002	-3.340176e+001	-7.237458e+001	-3.337781e+001	-7.243505e+001	-2.095908e-001	-1.584966e+002
3889292500	-2.610355e-001	-1.606764e+002	-3.378891e+001	-7.317308e+001	-3.378856e+001	-7.288233e+001	-2.276701e-001	-1.585671e+002
3910540000	-2.580492e-001	-1.610331e+002	-3.420746e+001	-7.365618e+001	-3.419792e+001	-7.341907e+001	-2.334240e-001	-1.586373e+002
3931787500	-2.614969e-001	-1.612991e+002	-3.467288e+001	-7.442373e+001	-3.465511e+001	-7.420189e+001	-2.325580e-001	-1.588986e+002
3953035000	-2.699489e-001	-1.612571e+002	-3.513695e+001	-7.508120e+001	-3.513115e+001	-7.479488e+001	-2.297053e-001	-1.589930e+002
3974282500	-2.669454e-001	-1.611976e+002	-3.554508e+001	-7.551210e+001	-3.555669e+001	-7.570524e+001	-2.324534e-001	-1.591662e+002
3995530000	-2.738859e-001	-1.613618e+002	-3.598284e+001	-7.636614e+001	-3.600483e+001	-7.609844e+001	-2.379105e-001	-1.591892e+002
4016777500	-2.862048e-001	-1.616417e+002	-3.653388e+001	-7.755243e+001	-3.643724e+001	-7.759840e+001	-2.455241e-001	-1.592225e+002
4038025000	-2.951304e-001	-1.620687e+002	-3.706264e+001	-7.884636e+001	-3.703338e+001	-7.866012e+001	-2.483397e-001	-1.594488e+002
4059272500	-2.997494e-001	-1.621571e+002	-3.765373e+001	-7.993679e+001	-3.767200e+001	-7.981369e+001	-2.525273e-001	-1.596263e+002
4080520000	-2.966818e-001	-1.621130e+002	-3.838761e+001	-8.092813e+001	-3.829146e+001	-8.200407e+001	-2.551765e-001	-1.597296e+002
4101767500	-2.874189e-001	-1.620863e+002	-3.892870e+001	-8.251900e+001	-3.886778e+001	-8.249301e+001	-2.552402e-001	-1.597296e+002
4123015000	-3.043900e-001	-1.623028e+002	-3.960996e+001	-8.455194e+001	-3.957951e+001	-8.411076e+001	-2.729983e-001	-1.598181e+002
4144262500	-3.155148e-001	-1.626858e+002	-4.036869e+001	-8.588491e+001	-4.033856e+001	-8.571600e+001	-2.829400e-001	-1.599868e+002
4165510000	-3.233387e-001	-1.628822e+002	-4.130163e+001	-8.782704e+001	-4.122826e+001	-8.880657e+001	-2.846001e-001	-1.601740e+002
4186757500	-3.232869e-001	-1.628950e+002	-4.219400e+001	-9.063036e+001	-4.213749e+001	-9.065768e+001	-2.838456e-001	-1.602654e+002
4208005000	-3.094558e-001	-1.628096e+002	-4.330470e+001	-9.374367e+001	-4.303935e+001	-9.397572e+001	-2.852831e-001	-1.603081e+002
4229252500	-3.359014e-001	-1.629149e+002	-4.441668e+001	-9.722745e+001	-4.435351e+001	-9.721383e+001	-3.010983e-001	-1.603082e+002
4250500000	-3.528156e-001	-1.633123e+002	-4.559728e+001	-1.008319e+002	-4.550443e+001	-9.961753e+001	-3.013869e-001	-1.604248e+002
4271747500	-3.472496e-001	-1.636727e+002	-4.660636e+001	-1.053922e+002	-4.690173e+001	-1.051358e+002	-3.071618e-001	-1.606141e+002
4292995000	-3.391459e-001	-1.638123e+002	-4.814275e+001	-1.099745e+002	-4.797605e+001	-1.093006e+002	-3.068885e-001	-1.607080e+002
4314242500	-3.241467e-001	-1.636853e+002	-4.927548e+001	-1.165527e+002	-4.923201e+001	-1.180827e+002	-3.126355e-001	-1.607855e+002
4335490000	-3.460440e-001	-1.638120e+002	-5.072166e+001	-1.280993e+002	-5.093661e+001	-1.282417e+002	-3.197120e-001	-1.608358e+002
4356737500	-3.650205e-001	-1.641805e+002	-5.196788e+001	-1.412574e+002	-5.189049e+001	-1.383488e+002	-3.130795e-001	-1.610077e+002
4377985000	-3.720339e-001	-1.645798e+002	-5.232790e+001	-1.579002e+002	-5.252560e+001	-1.581908e+002	-3.243443e-001	-1.611977e+002
4399232500	-3.571307e-001	-1.648393e+002	-5.215009e+001	-1.742281e+002	-5.208648e+001	-1.736525e+002	-3.168471e-001	-1.613371e+002
4420480000	-3.439621e-001	-1.646161e+002	-5.189136e+001	1.727688e+002	-5.171292e+001	1.722806e+002	-3.239149e-001	-1.613305e+002
4441727500	-3.623989e-001	-1.644513e+002	-5.056647e+001	1.604096e+002	-5.055227e+001	1.618342e+002	-3.281026e-001	-1.613769e+002
4462975000	-3.954137e-001	-1.647657e+002	-4.949371e+001	1.555040e+002	-4.953650e+001	1.523127e+002	-3.346223e-001	-1.615341e+002
4484222500	-4.090178e-001	-1.653431e+002	-4.825067e+001	1.476237e+002	-4.804185e+001	1.465563e+002	-3.438285e-001	-1.617644e+002
4505470000	-3.892365e-001	-1.657567e+002	-4.705292e+001	1.422382e+002	-4.700271e+001	1.431020e+002	-3.397875e-001	-1.619287e+002
4526717500	-3.742790e-001	-1.657176e+002	-4.586543e+001	1.392374e+002	-4.595958e+001	1.391024e+002	-3.456437e-001	-1.619909e+002
4547965000	-3.830388e-001	-1.656311e+002	-4.498365e+001	1.351364e+002	-4.493322e+001	1.369340e+002	-3.547396e-001	-1.619888e+002
4569212500	-4.105956e-001	-1.658635e+002	-4.409102e+001	1.324357e+002	-4.417710e+001	1.320943e+002	-3.614191e-001	-1.621737e+002
4590460000	-4.357794e-001	-1.664034e+002	-4.334903e+001	1.293088e+002	-4.327644e+001	1.303945e+002	-3.734292e-001	-1.623940e+002
4611707500	-4.218148e-001	-1.667892e+002	-4.298366e+001	1.270081e+002	-4.296563e+001	1.287048e+002	-3.703272e-001	-1.625869e+002
4632955000	-4.035698e-001	-1.667933e+002	-4.226631e+001	1.271127e+002	-4.220103e+001	1.275950e+002	-3.830570e-001	-1.626274e+002
4654202500	-4.158866e-001	-1.665382e+002	-4.170150e+001	1.261563e+002	-4.160560e+001	1.264995e+002	-3.880398e-001	-1.627013e+002
4675450000	-4.448597e-001	-1.665678e+002	-4.124372e+001	1.259321e+002	-4.122088e+001	1.260270e+002	-4.030479e-001	-1.628057e+002
4696697500	-4.598801e-001	-1.670777e+002	-4.057707e+001	1.251760e+002	-4.059457e+001	1.253864e+002	-4.207565e-001	-1.631256e+002
4717945000	-4.579315e-001	-1.676331e+002	-4.009349e+001	1.251669e+002	-4.008720e+001	1.248567e+002	-4.157094e-001	-1.632863e+002
4739192500	-4.470700e-001	-1.679059e+002	-3.967284e+001	1.236097e+002	-3.963855e+001	1.242521e+002	-4.178748e-001	-1.634683e+002
4760440000	-4.522000e-001	-1.678279e+002	-3.922070e+001	1.241731e+002	-3.925841e+001	1.241312e+002	-4.331681e-001	-1.634209e+002
4781687500	-4.772291e-001	-1.678187e+002	-3.889210e+001	1.236991e+002	-3.888157e+001	1.235496e+002	-4.501489e-001	-1.635172e+002
4802935000	-5.002251e-001	-1.681847e+002	-3.846123e+001	1.231991e+002	-3.845212e+001	1.230755e+002	-4.571675e-001	-1.637563e+002
4824182500	-5.026096e-001	-1.686649e+002	-3.809489e+001	1.232930e+002	-3.805865e+001	1.231975e+002	-4.646897e-001	-1.639157e+002
4845430000	-4.924969e-001	-1.690667e+002	-3.768665e+001	1.226717e+002	-3.766662e+001	1.227975e+002	-4.530138e-001	-1.641537e+002
4866677500	-4.867975e-001	-1.690010e+002	-3.728170e+001	1.216419e+002	-3.728915e+001	1.222787e+002	-4.681306e-001	-1.641511e+002
4887925000	-5.029946e-001	-1.689576e+002	-3.702396e+001	1.214340e+002	-3.705542e+001	1.217510e+002	-4.787478e-001	-1.642269e+002
4909172500	-5.185993e-001	-1.690256e+002	-3.683027e+001	1.210334e+002	-3.674494e+001	1.212655e+002	-4.734809e-001	-1.645000e+002
4930420000	-5.262507e-001	-1.695010e+002	-3.647764e+001	1.207326e+002	-3.644940e+001	1.210269e+002	-4.713795e-001	-1.647032e+002
4951667500	-5.128337e-001	-1.699498e+002	-3.623302e+001	1.200416e+002	-3.623395e+001	1.205450e+002	-4.734345e-001	-1.648676e+002
4972915000	-5.216467e-001	-1.701906e+002	-3.602092e+001	1.201760e+002	-3.599592e+001	1.206034e+002	-4.908514e-001	-1.649472e+002
4994162500	-5.285701e-001	-1.702869e+002	-3.580874e+001	1.197785e+002	-3.574273e+001	1.199940e+002	-4.846272e-001	-1.650615e+002
5015410000	-5.327096e-001	-1.703195e+002	-3.564553e+001	1.193082e+002	-3.560078e+001	1.196190e+002	-4.937533e-001	-1.652138e+002
5036657500	-5.365282e-001	-1.706755e+002	-3.550575e+001	1.190624e+002	-3.550389e+001	1.194291e+002	-4.880306e-001	-1.654836e+002
5057905000	-5.398076e-001	-1.710717e+002	-3.537499e+001	1.194408e+002	-3.539493e+001	1.198641e+002	-5.029790e-001	-1.655779e+002
5079152500	-5.535073e-001	-1.714640e+002	-3.522798e+001	1.197382e+002	-3.523492e+001	1.197885e+002	-5.070626e-001	-1.656823e+002
5100400000	-5.501724e-001	-1.715529e+002	-3.510664e+001	1.198729e+002	-3.502706e+001	1.201006e+002	-5.057237e-001	-1.658100e+002
5121647500	-5.644222e-001	-1.715598e+002	-3.491604e+001	1.200365e+002	-3.487297e+001	1.203646e+002	-5.112392e-001	-1.659260e+002
5142895000	-5.637623e-001	-1.716894e+002	-3.478713e+001	1.202863e+002	-3.476460e+001	1.200089e+002	-5.052063e-001	-1.661737e+002
5164142500	-5.606178e-001	-1.720289e+002	-3.463519e+001	1.199156e+002	-3.466262e+001	1.203615e+002	-5.262945e-001	-1.662757e+002
5185390000	-5.760028e-001	-1.724793e+002	-3.460208e+001	1.201619e+002	-3.462600e+001	1.201741e+002	-5.278716e-001	-1.664316e+002
5206637500	-5.746554e-001	-1.727535e+002	-3.454508e+001	1.198867e+002	-3.454461e+001	1.202057e+002	-5.278198e-001	-1.665480e+002
5227885000	-5.767873e-001	-1.728131e+002	-3.453698e+001	1.204817e+002	-3.453072e+001	1.205731e+002	-5.445237e-001	-1.666549e+002
5249132500	-5.767303e-001	-1.728395e+002	-3.449265e+001	1.204851e+002	-3.439894e+001	1.206294e+002	-5.417736e-001	-1.669334e+002
5270380000	-5.946667e-001	-1.730346e+002	-3.447602e+001	1.211651e+002	-3.442980e+001	1.212985e+002	-5.629125e-001	-1.670516e+002
5291627500	-6.055655e-001	-1.736026e+002	-3.444955e+001	1.213454e+002	-3.444262e+001	1.213981e+002	-5.661284e-001	-1.673270e+002
5312875000	-5.957272e-001	-1.739620e+002	-3.452341e+001	1.215521e+002	-3.454938e+001	1.218547e+002	-5.741076e-001	-1.674106e+002
5334122500	-5.977546e-001	-1.741370e+002	-3.463389e+001	1.228525e+002	-3.462796e+001	1.226862e+002	-5.877251e-001	-1.676817e+002
5355370000	-5.911433e-001	-1.741320e+002	-3.468039e+001	1.236842e+002	-3.470752e+001	1.242523e+002	-5.864118e-001	-1.679171e+002
5376617500	-6.188775e-001	-1.742333e+002	-3.475538e+001	1.255105e+002	-3.480691e+001	1.253916e+002	-6.033193e-001	-1.680909e+002
5397865000	-6.411064e-001	-1.747986e+002	-3.481216e+001	1.264509e+002	-3.481412e+001	1.262480e+002	-6.071809e-001	-1.683560e+002
5419112500	-6.318537e-001	-1.752312e+002	-3.498876e+001	1.277075e+002	-3.495466e+001	1.279362e+002	-6.228016e-001	-1.684174e+002
5440360000	-6.187486e-001	-1.754756e+002	-3.512678e+001	1.300225e+002	-3.511924e+001	1.295701e+002	-6.311393e-001	-1.686247e+002
5461607500	-6.189593e-001	-1.753976e+002	-3.530655e+001	1.320327e+002	-3.534036e+001	1.320901e+002	-6.428344e-001	-1.688524e+002
5482855000	-6.512262e-001	-1.754418e+002	-3.555488e+001	1.346774e+002	-3.551831e+001	1.347735e+002	-6.567963e-001	-1.690887e+002
5504102500	-6.766062e-001	-1.759886e+002	-3.568311e+001	1.381858e+002	-3.568431e+001	1.378265e+002	-6.554618e-001	-1.693647e+002
5525350000	-6.765940e-001	-1.765368e+002	-3.598479e+001	1.421136e+002	-3.593617e+001	1.422848e+002	-6.714571e-001	-1.695236e+002
5546597500	-6.662427e-001	-1.768913e+002	-3.611269e+001	1.470529e+002	-3.611869e+001	1.476881e+002	-6.829797e-001	-1.699443e+002
5567845000	-6.442349e-001	-1.769041e+002	-3.627818e+001	1.535544e+002	-3.626384e+001	1.534226e+002	-6.865772e-001	-1.701216e+002
5589092500	-7.012760e-001	-1.769227e+002	-3.622600e+001	1.607963e+002	-3.616528e+001	1.606576e+002	-7.115435e-001	-1.705067e+002
5610340000	-7.275075e-001	-1.774672e+002	-3.595707e+001	1.685229e+002	-3.593306e+001	1.688532e+002	-7.123073e-001	-1.708050e+002
5631587500	-7.375163e-001	-1.781547e+002	-3.545551e+001	1.772428e+002	-3.540902e+001	1.772578e+002	-7.444672e-001	-1.710523e+002
5652835000	-7.398069e-001	-1.787065e+002	-3.465646e+001	-1.744066e+002	-3.465459e+001	-1.741608e+002	-7.610681e-001	-1.714523e+002
5674082500	-7.259863e-001	-1.787260e+002	-3.353710e+001	-1.671542e+002	-3.358854e+001	-1.670966e+002	-7.901374e-001	-1.718156e+002
5695330000	-7.824968e-001	-1.787260e+002	-3.232844e+001	-1.612870e+002	-3.230188e+001	-1.609553e+002	-8.140180e-001	-1.722562e+002
5716577500	-8.226472e-001	-1.791806e+002	-3.088122e+001	-1.561317e+002	-3.089125e+001	-1.561574e+002	-8.387549e-001	-1.725082e+002
5737825000	-8.794037e-001	-1.798127e+002	-2.949124e+001	-1.526904e+002	-2.942599e+001	-1.526161e+002	-9.050826e-001	-1.728384e+002
5759072500	-9.019869e-001	1.794086e+002	-2.795486e+001	-1.503037e+002	-2.795199e+001	-1.504141e+002	-9.527179e-001	-1.733036e+002
5780320000	-9.282764e-001	1.791636e+002	-2.643263e+001	-1.493052e+002	-2.642369e+001	-1.492991e+002	-1.029110e+000	-1.737854e+002
5801567500	-1.018749e+000	1.790739e+002	-2.487629e+001	-1.493703e+002	-2.484233e+001	-1.493558e+002	-1.102274e+000	-1.742359e+002
5822815000	-1.114102e+000	1.786987e+002	-2.332265e+001	-1.505932e+002	-2.329752e+001	-1.504761e+002	-1.223848e+000	-1.745259e+002
5844062500	-1.268353e+000	1.781005e+002	-2.178699e+001	-1.530696e+002	-2.175261e+001	-1.530306e+002	-1.394717e+000	-1.749220e+002
5865310000	-1.381349e+000	1.773638e+002	-2.028615e+001	-1.566538e+002	-2.026537e+001	-1.566497e+002	-1.582479e+000	-1.751138e+002
5886557500	-1.509380e+000	1.774531e+002	-1.885134e+001	-1.618239e+002	-1.883980e+001	-1.619505e+002	-1.821632e+000	-1.749902e+002
5907805000	-1.707555e+000	1.781869e+002	-1.755964e+001	-1.685785e+002	-1.752784e+001	-1.685176e+002	-2.039918e+000	-1.743342e+002
5929052500	-1.884317e+000	1.794788e+002	-1.645811e+001	-1.765561e+002	-1.641662e+001	-1.764564e+002	-2.278173e+000	-1.728399e+002
5950300000	-2.053442e+000	-1.792363e+002	-1.559810e+001	1.746279e+002	-1.553774e+001	1.747569e+002	-2.448763e+000	-1.708025e+002
5971547500	-2.055564e+000	-1.779763e+002	-1.501235e+001	1.653809e+002	-1.496361e+001	1.653752e+002	-2.473233e+000	-1.684647e+002
5992795000	-1.951451e+000	-1.765533e+002	-1.473553e+001	1.562063e+002	-1.468877e+001	1.561357e+002	-2.365181e+000	-1.664555e+002
6014042500	-1.792179e+000	-1.754007e+002	-1.473177e+001	1.476573e+002	-1.467864e+001	1.476240e+002	-2.128162e+000	-1.649549e+002
6035290000	-1.620546e+000	-1.744160e+002	-1.491897e+001	1.402785e+002	-1.484591e+001	1.402570e+002	-1.891244e+000	-1.640358e+002
6056537500	-1.485226e+000	-1.741788e+002	-1.516597e+001	1.342650e+002	-1.509434e+001	1.342310e+002	-1.675082e+000	-1.637866e+002
6077785000	-1.336086e+000	-1.744869e+002	-1.545773e+001	1.291484e+002	-1.539511e+001	1.291417e+002	-1.489295e+000	-1.637622e+002
6099032500	-1.218264e+000	-1.749129e+002	-1.576243e+001	1.246362e+002	-1.570903e+001	1.246800e+002	-1.341386e+000	-1.640789e+002
6120280000	-1.103423e+000	-1.752548e+002	-1.610464e+001	1.209450e+002	-1.605598e+001	1.209222e+002	-1.192517e+000	-1.644248e+002
6141527500	-1.021160e+000	-1.752921e+002	-1.643445e+001	1.180603e+002	-1.638058e+001	1.180579e+002	-1.102119e+000	-1.646383e+002
6162775000	-9.731868e-001	-1.754868e+002	-1.671976e+001	1.158010e+002	-1.666135e+001	1.158522e+002	-1.025736e+000	-1.650555e+002
6184022500	-9.257237e-001	-1.759304e+002	-1.696746e+001	1.137393e+002	-1.689644e+001	1.137763e+002	-9.590084e-001	-1.653413e+002
6205270000	-8.898595e-001	-1.764733e+002	-1.720088e+001	1.117225e+002	-1.713583e+001	1.116655e+002	-9.129342e-001	-1.658597e+002
6226517500	-8.375370e-001	-1.770344e+002	-1.742281e+001	1.099858e+002	-1.737802e+001	1.100018e+002	-8.555298e-001	-1.661728e+002
6247765000	-8.081290e-001	-1.771472e+002	-1.764875e+001	1.085418e+002	-1.760675e+001	1.087010e+002	-8.365665e-001	-1.665040e+002
6269012500	-7.844169e-001	-1.773410e+002	-1.784282e+001	1.075351e+002	-1.778625e+001	1.077409e+002	-7.991827e-001	-1.668588e+002
6290260000	-7.632250e-001	-1.775736e+002	-1.798899e+001	1.066541e+002	-1.794524e+001	1.066023e+002	-7.766000e-001	-1.671281e+002
6311507500	-7.607687e-001	-1.781200e+002	-1.809407e+001	1.056504e+002	-1.805348e+001	1.057346e+002	-7.535680e-001	-1.674420e+002
6332755000	-7.274245e-001	-1.785307e+002	-1.823173e+001	1.046318e+002	-1.819360e+001	1.047187e+002	-7.248330e-001	-1.676047e+002
6354002500	-7.185856e-001	-1.787015e+002	-1.839101e+001	1.039269e+002	-1.834353e+001	1.040905e+002	-7.267079e-001	-1.678654e+002
6375250000	-6.988216e-001	-1.787966e+002	-1.850974e+001	1.035269e+002	-1.846555e+001	1.036761e+002	-7.051630e-001	-1.681220e+002
6396497500	-6.884756e-001	-1.789530e+002	-1.856647e+001	1.030844e+002	-1.849666e+001	1.031569e+002	-6.966361e-001	-1.683895e+002
6417745000	-6.934285e-001	-1.793396e+002	-1.860415e+001	1.023753e+002	-1.854048e+001	1.024109e+002	-6.758674e-001	-1.686288e+002
6438992500	-6.771573e-001	-1.797567e+002	-1.869428e+001	1.015977e+002	-1.863557e+001	1.017421e+002	-6.664096e-001	-1.686662e+002
6460240000	-6.829416e-001	1.799629e+002	-1.878009e+001	1.011556e+002	-1.873111e+001	1.013384e+002	-6.713824e-001	-1.688338e+002
6481487500	-6.546653e-001	1.798350e+002	-1.882806e+001	1.010499e+002	-1.878182e+001	1.011526e+002	-6.561632e-001	-1.690225e+002
6502735000	-6.411822e-001	1.799343e+002	-1.881821e+001	1.007076e+002	-1.876105e+001	1.008466e+002	-6.535222e-001	-1.692583e+002
6523982500	-6.545000e-001	1.797193e+002	-1.882699e+001	1.000918e+002	-1.874408e+001	1.001238e+002	-6.309855e-001	-1.694477e+002
6545230000	-6.547949e-001	1.793415e+002	-1.888191e+001	9.948210e+001	-1.879259e+001	9.954498e+001	-6.228395e-001	-1.695668e+002
6566477500	-6.558594e-001	1.789690e+002	-1.892465e+001	9.906156e+001	-1.885762e+001	9.917620e+001	-6.207815e-001	-1.697180e+002
6587725000	-6.263978e-001	1.788320e+002	-1.894706e+001	9.883334e+001	-1.889143e+001	9.892515e+001	-6.157046e-001	-1.699180e+002
6608972500	-6.061191e-001	1.789100e+002	-1.892516e+001	9.850975e+001	-1.886146e+001	9.868838e+001	-6.152143e-001	-1.700773e+002
6630220000	-6.189475e-001	1.788032e+002	-1.892682e+001	9.800124e+001	-1.885555e+001	9.809048e+001	-5.873686e-001	-1.701883e+002
6651467500	-6.369496e-001	1.784304e+002	-1.893454e+001	9.753248e+001	-1.886332e+001	9.762291e+001	-5.852852e-001	-1.702411e+002
6672715000	-6.330580e-001	1.779607e+002	-1.895944e+001	9.713787e+001	-1.890473e+001	9.735273e+001	-5.774183e-001	-1.703783e+002
6693962500	-6.017665e-001	1.777776e+002	-1.896860e+001	9.683258e+001	-1.890643e+001	9.706867e+001	-5.763231e-001	-1.705295e+002
6715210000	-5.805505e-001	1.779352e+002	-1.893808e+001	9.664489e+001	-1.889444e+001	9.691651e+001	-5.638511e-001	-1.707251e+002
6736457500	-5.862118e-001	1.780306e+002	-1.894277e+001	9.622697e+001	-1.887667e+001	9.658299e+001	-5.511598e-001	-1.708370e+002
6757705000	-6.180118e-001	1.778239e+002	-1.892273e+001	9.591070e+001	-1.886367e+001	9.613935e+001	-5.439363e-001	-1.708924e+002
6778952500	-6.216149e-001	1.773057e+002	-1.892091e+001	9.563455e+001	-1.885338e+001	9.588685e+001	-5.434786e-001	-1.710179e+002
6800200000	-5.857092e-001	1.770042e+002	-1.891299e+001	9.536972e+001	-1.885518e+001	9.569715e+001	-5.383113e-001	-1.711611e+002
6821447500	-5.510166e-001	1.771044e+002	-1.888872e+001	9.520676e+001	-1.882855e+001	9.547269e+001	-5.303592e-001	-1.713363e+002
6842695000	-5.580362e-001	1.772607e+002	-1.884905e+001	9.486661e+001	-1.879163e+001	9.509598e+001	-5.198674e-001	-1.714402e+002
6863942500	-5.939673e-001	1.771205e+002	-1.881096e+001	9.449829e+001	-1.876608e+001	9.476108e+001	-5.131415e-001	-1.715159e+002
6885190000	-5.955848e-001	1.766218e+002	-1.879998e+001	9.414179e+001	-1.874207e+001	9.440237e+001	-5.127781e-001	-1.716236e+002
6906437500	-5.652843e-001	1.762017e+002	-1.877758e+001	9.387366e+001	-1.873353e+001	9.414633e+001	-5.036024e-001	-1.717812e+002
6927685000	-5.285393e-001	1.761512e+002	-1.874903e+001	9.370138e+001	-1.870556e+001	9.397488e+001	-4.973753e-001	-1.719381e+002
6948932500	-5.314408e-001	1.764036e+002	-1.870998e+001	9.345743e+001	-1.867834e+001	9.365240e+001	-5.019119e-001	-1.720513e+002
6970180000	-5.611139e-001	1.764129e+002	-1.869782e+001	9.325980e+001	-1.867000e+001	9.335178e+001	-4.897603e-001	-1.721212e+002
6991427500	-5.717650e-001	1.760159e+002	-1.866691e+001	9.308460e+001	-1.862682e+001	9.311597e+001	-4.872447e-001	-1.721777e+002
7012675000	-5.437934e-001	1.754692e+002	-1.862211e+001	9.274978e+001	-1.858284e+001	9.293058e+001	-4.796006e-001	-1.722939e+002
7033922500	-5.098679e-001	1.752872e+002	-1.858034e+001	9.236200e+001	-1.854161e+001	9.261246e+001	-4.857863e-001	-1.723777e+002
7055170000	-5.141869e-001	1.754236e+002	-1.856205e+001	9.200619e+001	-1.851915e+001	9.234746e+001	-4.706066e-001	-1.725553e+002
7076417500	-5.271694e-001	1.755426e+002	-1.854199e+001	9.201882e+001	-1.851480e+001	9.215259e+001	-4.763646e-001	-1.726351e+002
7097665000	-5.403472e-001	1.753233e+002	-1.851144e+001	9.175949e+001	-1.846879e+001	9.194408e+001	-4.737819e-001	-1.726958e+002
7118912500	-5.188924e-001	1.748615e+002	-1.846365e+001	9.156526e+001	-1.841712e+001	9.181873e+001	-4.639004e-001	-1.727707e+002
7140160000	-4.933324e-001	1.745953e+002	-1.843690e+001	9.118725e+001	-1.838187e+001	9.149247e+001	-4.611774e-001	-1.728873e+002
7161407500	-5.028456e-001	1.745566e+002	-1.841021e+001	9.108216e+001	-1.837361e+001	9.132910e+001	-4.541551e-001	-1.730089e+002
7182655000	-5.115328e-001	1.746520e+002	-1.837711e+001	9.104257e+001	-1.833766e+001	9.113289e+001	-4.506093e-001	-1.730313e+002
7203902500	-5.196662e-001	1.744959e+002	-1.831305e+001	9.078636e+001	-1.826261e+001	9.098971e+001	-4.539833e-001	-1.731110e+002
7225150000	-5.008526e-001	1.741460e+002	-1.826175e+001	9.041728e+001	-1.819969e+001	9.086999e+001	-4.380988e-001	-1.731598e+002
7246397500	-4.929327e-001	1.738688e+002	-1.822261e+001	9.005421e+001	-1.816688e+001	9.052753e+001	-4.492926e-001	-1.732789e+002
7267645000	-5.022680e-001	1.736285e+002	-1.818981e+001	8.990218e+001	-1.814751e+001	9.034384e+001	-4.345752e-001	-1.734677e+002
7288892500	-5.028703e-001	1.736738e+002	-1.816451e+001	8.980241e+001	-1.810081e+001	9.015027e+001	-4.273387e-001	-1.734681e+002
7310140000	-4.971716e-001	1.736554e+002	-1.808679e+001	8.970301e+001	-1.804608e+001	9.013784e+001	-4.222517e-001	-1.735627e+002
7331387500	-4.770277e-001	1.735488e+002	-1.803044e+001	8.967769e+001	-1.800256e+001	8.999357e+001	-4.265460e-001	-1.735560e+002
7352635000	-4.825833e-001	1.732922e+002	-1.795313e+001	8.926411e+001	-1.793097e+001	8.973802e+001	-4.256604e-001	-1.736320e+002
7373882500	-4.991407e-001	1.728670e+002	-1.791752e+001	8.894758e+001	-1.788871e+001	8.946283e+001	-4.022161e-001	-1.737151e+002
7395130000	-4.971075e-001	1.728210e+002	-1.788116e+001	8.882961e+001	-1.784179e+001	8.928389e+001	-3.982402e-001	-1.737949e+002
7416377500	-4.827604e-001	1.728433e+002	-1.780968e+001	8.878963e+001	-1.779326e+001	8.944031e+001	-3.935876e-001	-1.738209e+002
7437625000	-4.603759e-001	1.727911e+002	-1.773649e+001	8.858322e+001	-1.771855e+001	8.925357e+001	-4.088179e-001	-1.738196e+002
7458872500	-4.800724e-001	1.725599e+002	-1.765423e+001	8.826707e+001	-1.765328e+001	8.883798e+001	-4.137479e-001	-1.740063e+002
7480120000	-4.936189e-001	1.720614e+002	-1.758953e+001	8.808733e+001	-1.761180e+001	8.855065e+001	-3.956852e-001	-1.741513e+002
7501367500	-4.804042e-001	1.718399e+002	-1.754800e+001	8.802835e+001	-1.756848e+001	8.822972e+001	-3.971089e-001	-1.743198e+002
7522615000	-4.550113e-001	1.719049e+002	-1.748621e+001	8.793249e+001	-1.753545e+001	8.840233e+001	-3.805709e-001	-1.743939e+002
7543862500	-4.362587e-001	1.720744e+002	-1.741536e+001	8.772215e+001	-1.744437e+001	8.817421e+001	-3.880472e-001	-1.744355e+002
7565110000	-4.675038e-001	1.719001e+002	-1.733899e+001	8.746537e+001	-1.735791e+001	8.798019e+001	-3.844805e-001	-1.745004e+002
7586357500	-4.872085e-001	1.713058e+002	-1.728953e+001	8.727985e+001	-1.732548e+001	8.758634e+001	-3.784584e-001	-1.745659e+002
7607605000	-4.878179e-001	1.708454e+002	-1.725189e+001	8.701622e+001	-1.729565e+001	8.738000e+001	-3.918975e-001	-1.748112e+002
7628852500	-4.424120e-001	1.707158e+002	-1.717514e+001	8.702490e+001	-1.723996e+001	8.731466e+001	-3.817264e-001	-1.749938e+002
7650100000	-4.055433e-001	1.710076e+002	-1.711319e+001	8.672982e+001	-1.715027e+001	8.729251e+001	-3.843659e-001	-1.750202e+002
7671347500	-4.444398e-001	1.710522e+002	-1.705171e+001	8.665471e+001	-1.708886e+001	8.694998e+001	-3.913590e-001	-1.751556e+002
7692595000	-4.747252e-001	1.705091e+002	-1.700493e+001	8.640451e+001	-1.703215e+001	8.654280e+001	-3.822293e-001	-1.752301e+002
7713842500	-4.785607e-001	1.698104e+002	-1.693493e+001	8.610573e+001	-1.699012e+001	8.633690e+001	-3.896526e-001	-1.753857e+002
7735090000	-4.254394e-001	1.695745e+002	-1.687627e+001	8.599897e+001	-1.694433e+001	8.613315e+001	-3.850436e-001	-1.755593e+002
7756337500	-3.851685e-001	1.699201e+002	-1.683199e+001	8.571584e+001	-1.685788e+001	8.606257e+001	-3.857723e-001	-1.757787e+002
7777585000	-4.325929e-001	1.700128e+002	-1.678123e+001	8.561707e+001	-1.680574e+001	8.581549e+001	-3.761451e-001	-1.758297e+002
7798832500	-4.703933e-001	1.695351e+002	-1.672029e+001	8.530562e+001	-1.671887e+001	8.544964e+001	-3.747984e-001	-1.757393e+002
7820080000	-4.774444e-001	1.687569e+002	-1.664430e+001	8.504642e+001	-1.666620e+001	8.522304e+001	-3.889342e-001	-1.758719e+002
7841327500	-4.268531e-001	1.683451e+002	-1.657017e+001	8.480412e+001	-1.663469e+001	8.514091e+001	-3.837751e-001	-1.761088e+002
7862575000	-3.843288e-001	1.686393e+002	-1.653178e+001	8.457438e+001	-1.655274e+001	8.491565e+001	-3.956989e-001	-1.764196e+002
7883822500	-4.057369e-001	1.688458e+002	-1.646845e+001	8.432003e+001	-1.649309e+001	8.458903e+001	-3.836682e-001	-1.765674e+002
7905070000	-4.554366e-001	1.685823e+002	-1.641001e+001	8.410570e+001	-1.641107e+001	8.423777e+001	-3.638188e-001	-1.765165e+002
7926317500	-4.787142e-001	1.678711e+002	-1.632950e+001	8.394078e+001	-1.634807e+001	8.414496e+001	-3.719356e-001	-1.764301e+002
7947565000	-4.446449e-001	1.673643e+002	-1.626542e+001	8.361253e+001	-1.628984e+001	8.387346e+001	-3.928095e-001	-1.766466e+002
7968812500	-3.954383e-001	1.674686e+002	-1.620582e+001	8.334465e+001	-1.623596e+001	8.379348e+001	-4.188421e-001	-1.769903e+002
7990060000	-4.229735e-001	1.677109e+002	-1.615086e+001	8.303024e+001	-1.617006e+001	8.346025e+001	-3.744620e-001	-1.772189e+002
8011307500	-4.635538e-001	1.674888e+002	-1.607954e+001	8.294558e+001	-1.610405e+001	8.323127e+001	-3.805884e-001	-1.773011e+002
8032555000	-4.951506e-001	1.667580e+002	-1.598289e+001	8.271923e+001	-1.605017e+001	8.313554e+001	-3.797515e-001	-1.772388e+002
8053802500	-4.586661e-001	1.662426e+002	-1.590982e+001	8.235263e+001	-1.599251e+001	8.288314e+001	-4.015795e-001	-1.772939e+002
8075050000	-4.270094e-001	1.662114e+002	-1.584747e+001	8.205459e+001	-1.592258e+001	8.259214e+001	-4.238388e-001	-1.776930e+002
8096297500	-4.417585e-001	1.662733e+002	-1.581190e+001	8.186264e+001	-1.587430e+001	8.214105e+001	-4.191253e-001	-1.779402e+002
8117545000	-4.827512e-001	1.661152e+002	-1.575726e+001	8.190384e+001	-1.581340e+001	8.203243e+001	-4.136188e-001	-1.780849e+002
8138792500	-5.310622e-001	1.655945e+002	-1.569573e+001	8.159263e+001	-1.576753e+001	8.181173e+001	-4.316119e-001	-1.780979e+002
8160040000	-4.906259e-001	1.649585e+002	-1.560971e+001	8.135278e+001	-1.567819e+001	8.172536e+001	-4.366274e-001	-1.782725e+002
8181287500	-4.516661e-001	1.648949e+002	-1.555927e+001	8.101601e+001	-1.564179e+001	8.148142e+001	-4.371527e-001	-1.784500e+002
8202535000	-4.739147e-001	1.648337e+002	-1.551838e+001	8.061002e+001	-1.557463e+001	8.112957e+001	-4.336700e-001	-1.786488e+002
8223782500	-5.244054e-001	1.647659e+002	-1.543879e+001	8.059169e+001	-1.551111e+001	8.087587e+001	-4.247993e-001	-1.786725e+002
8245030000	-5.347495e-001	1.641871e+002	-1.538394e+001	8.045444e+001	-1.545068e+001	8.069404e+001	-4.681151e-001	-1.788340e+002
8266277500	-5.061107e-001	1.636841e+002	-1.529011e+001	8.008941e+001	-1.540217e+001	8.041587e+001	-4.747312e-001	-1.789734e+002
8287525000	-4.909877e-001	1.634410e+002	-1.523486e+001	7.979845e+001	-1.532410e+001	7.993116e+001	-4.700908e-001	-1.793333e+002
8308772500	-5.075232e-001	1.633493e+002	-1.519831e+001	7.938900e+001	-1.524417e+001	7.974270e+001	-4.405091e-001	-1.795692e+002
8330020000	-5.421076e-001	1.631426e+002	-1.515043e+001	7.940410e+001	-1.521017e+001	7.950986e+001	-4.444371e-001	-1.795616e+002
8351267500	-5.583612e-001	1.628251e+002	-1.507174e+001	7.912637e+001	-1.512876e+001	7.930244e+001	-4.644308e-001	-1.795386e+002
8372515000	-5.280877e-001	1.623819e+002	-1.499988e+001	7.882663e+001	-1.507022e+001	7.893220e+001	-5.007188e-001	-1.797449e+002
8393762500	-5.305974e-001	1.620528e+002	-1.496341e+001	7.839177e+001	-1.500301e+001	7.850856e+001	-5.239843e-001	1.797874e+002
8415010000	-5.465634e-001	1.618641e+002	-1.491931e+001	7.807819e+001	-1.495771e+001	7.823097e+001	-5.005606e-001	1.794908e+002
8436257500	-5.682307e-001	1.615992e+002	-1.485571e+001	7.788083e+001	-1.490472e+001	7.812701e+001	-4.699785e-001	1.794315e+002
8457505000	-5.781135e-001	1.612300e+002	-1.478814e+001	7.773280e+001	-1.482216e+001	7.785931e+001	-4.872343e-001	1.795133e+002
8478752500	-5.579129e-001	1.608708e+002	-1.468174e+001	7.732559e+001	-1.473958e+001	7.718236e+001	-5.318445e-001	1.793806e+002
8500000000	-5.619566e-001	1.605348e+002	-1.466034e+001	7.672625e+001	-1.466806e+001	7.674526e+001	-5.735371e-001	1.789662e+002
